# B3LYP/6-31+G** empiricaldispersion=gd3bj opt=calcfc freq=noraman nosymm integral(ultrafinegrid)

 Candidate Structure: Conf:296 OPT and FREQ calc in gas phase

-1 1
 C   0.00000   0.00000   0.00000
 C  -0.50000   1.41420   0.00000
 C  -2.00000   1.41420  -0.00000
 C  -2.50000   2.82840   0.00000
 C  -4.00000   2.82840  -0.00000
 C  -4.50000   2.12130   1.22470
 C  -6.00000   2.12130   1.22470
 C  -6.50000   1.41420   2.44950
 C  -8.00000   1.41420   2.44950
 C  -8.50000   0.70710   3.67420
 C  -10.00000  0.70710   3.67420
 C  -10.50000  2.12130   3.67420
 C  -12.00000  2.12130   3.67420
 C  -12.50000  1.41420   4.89900
 O  -13.21400  0.40450   4.80850
 O  -12.17610  1.87230   6.00480
 C   1.50000   0.00000   0.00000
 C   2.00000  -1.41420   0.00000
 C   3.50000  -1.41420   0.00000
 C   4.00000  -2.82840   0.00000
 C   5.50000  -2.82840   0.00000
 C   6.00000  -4.24260   0.00000
 C   7.50000  -4.24260   0.00000
 C   8.19210  -5.23700   0.57410
 C   7.49170  -6.38570   1.23730
 C   7.25820  -6.06150   2.68310
 C   6.55780  -7.21020   3.34630
 C   6.32440  -6.88600   4.79210
 C   5.62400  -8.03480   5.45540
 C   6.47350  -9.26650   5.35000
 C   5.77310  -10.41520   6.01320
 C   6.62270  -11.64690   5.90790
 H  -0.36330  -0.51380   0.89000
 H  -0.36330  -0.51380  -0.89000
 H  -0.13670   1.92800   0.89000
 H  -0.13670   1.92800  -0.89000
 H  -2.36330   0.90040  -0.89000
 H  -2.36330   0.90040   0.89000
 H  -2.13670   3.34230  -0.89000                                                                2,8         
